c
c start with comments
c
p cnf 25 16
3 13 14 0
13 23 12 0
-24 -12 -5 0
26 26 0
-6 2 0
-4 23 9 -20 -27 0
-26 17 0
11 -4 -10 0
-19 -2 0
8 21 0
-5 -23 9 -18 0
5 -3 0
7 -16 0
-23 -21 15 0
6 3 9 0
22 16 0